c Fichier CNF généré
c
p cnf 324 3459
-2 -7 0
-2 -3 0
-2 -13 0
-2 -4 0
-2 -19 0
-2 -5 0
-2 -25 0
-2 -6 0
-2 -31 0
-7 -3 0
-7 -13 0
-7 -4 0
-7 -19 0
-7 -5 0
-7 -25 0
-7 -6 0
-7 -31 0
-3 -13 0
-3 -4 0
-3 -19 0
-3 -5 0
-3 -25 0
-3 -6 0
-3 -31 0
-13 -4 0
-13 -19 0
-13 -5 0
-13 -25 0
-13 -6 0
-13 -31 0
-4 -19 0
-4 -5 0
-4 -25 0
-4 -6 0
-4 -31 0
-19 -5 0
-19 -25 0
-19 -6 0
-19 -31 0
-5 -25 0
-5 -6 0
-5 -31 0
-25 -6 0
-25 -31 0
-6 -31 0
-38 -43 0
-38 -39 0
-38 -49 0
-38 -40 0
-38 -55 0
-38 -41 0
-38 -61 0
-38 -42 0
-38 -67 0
-43 -39 0
-43 -49 0
-43 -40 0
-43 -55 0
-43 -41 0
-43 -61 0
-43 -42 0
-43 -67 0
-39 -49 0
-39 -40 0
-39 -55 0
-39 -41 0
-39 -61 0
-39 -42 0
-39 -67 0
-49 -40 0
-49 -55 0
-49 -41 0
-49 -61 0
-49 -42 0
-49 -67 0
-40 -55 0
-40 -41 0
-40 -61 0
-40 -42 0
-40 -67 0
-55 -41 0
-55 -61 0
-55 -42 0
-55 -67 0
-41 -61 0
-41 -42 0
-41 -67 0
-61 -42 0
-61 -67 0
-42 -67 0
-74 -79 0
-74 -75 0
-74 -85 0
-74 -76 0
-74 -91 0
-74 -77 0
-74 -97 0
-74 -78 0
-74 -103 0
-79 -75 0
-79 -85 0
-79 -76 0
-79 -91 0
-79 -77 0
-79 -97 0
-79 -78 0
-79 -103 0
-75 -85 0
-75 -76 0
-75 -91 0
-75 -77 0
-75 -97 0
-75 -78 0
-75 -103 0
-85 -76 0
-85 -91 0
-85 -77 0
-85 -97 0
-85 -78 0
-85 -103 0
-76 -91 0
-76 -77 0
-76 -97 0
-76 -78 0
-76 -103 0
-91 -77 0
-91 -97 0
-91 -78 0
-91 -103 0
-77 -97 0
-77 -78 0
-77 -103 0
-97 -78 0
-97 -103 0
-78 -103 0
-110 -115 0
-110 -111 0
-110 -121 0
-110 -112 0
-110 -127 0
-110 -113 0
-110 -133 0
-110 -114 0
-110 -139 0
-115 -111 0
-115 -121 0
-115 -112 0
-115 -127 0
-115 -113 0
-115 -133 0
-115 -114 0
-115 -139 0
-111 -121 0
-111 -112 0
-111 -127 0
-111 -113 0
-111 -133 0
-111 -114 0
-111 -139 0
-121 -112 0
-121 -127 0
-121 -113 0
-121 -133 0
-121 -114 0
-121 -139 0
-112 -127 0
-112 -113 0
-112 -133 0
-112 -114 0
-112 -139 0
-127 -113 0
-127 -133 0
-127 -114 0
-127 -139 0
-113 -133 0
-113 -114 0
-113 -139 0
-133 -114 0
-133 -139 0
-114 -139 0
-146 -151 0
-146 -147 0
-146 -157 0
-146 -148 0
-146 -163 0
-146 -149 0
-146 -169 0
-146 -150 0
-146 -175 0
-151 -147 0
-151 -157 0
-151 -148 0
-151 -163 0
-151 -149 0
-151 -169 0
-151 -150 0
-151 -175 0
-147 -157 0
-147 -148 0
-147 -163 0
-147 -149 0
-147 -169 0
-147 -150 0
-147 -175 0
-157 -148 0
-157 -163 0
-157 -149 0
-157 -169 0
-157 -150 0
-157 -175 0
-148 -163 0
-148 -149 0
-148 -169 0
-148 -150 0
-148 -175 0
-163 -149 0
-163 -169 0
-163 -150 0
-163 -175 0
-149 -169 0
-149 -150 0
-149 -175 0
-169 -150 0
-169 -175 0
-150 -175 0
-182 -187 0
-182 -183 0
-182 -193 0
-182 -184 0
-182 -199 0
-182 -185 0
-182 -205 0
-182 -186 0
-182 -211 0
-187 -183 0
-187 -193 0
-187 -184 0
-187 -199 0
-187 -185 0
-187 -205 0
-187 -186 0
-187 -211 0
-183 -193 0
-183 -184 0
-183 -199 0
-183 -185 0
-183 -205 0
-183 -186 0
-183 -211 0
-193 -184 0
-193 -199 0
-193 -185 0
-193 -205 0
-193 -186 0
-193 -211 0
-184 -199 0
-184 -185 0
-184 -205 0
-184 -186 0
-184 -211 0
-199 -185 0
-199 -205 0
-199 -186 0
-199 -211 0
-185 -205 0
-185 -186 0
-185 -211 0
-205 -186 0
-205 -211 0
-186 -211 0
-218 -223 0
-218 -219 0
-218 -229 0
-218 -220 0
-218 -235 0
-218 -221 0
-218 -241 0
-218 -222 0
-218 -247 0
-223 -219 0
-223 -229 0
-223 -220 0
-223 -235 0
-223 -221 0
-223 -241 0
-223 -222 0
-223 -247 0
-219 -229 0
-219 -220 0
-219 -235 0
-219 -221 0
-219 -241 0
-219 -222 0
-219 -247 0
-229 -220 0
-229 -235 0
-229 -221 0
-229 -241 0
-229 -222 0
-229 -247 0
-220 -235 0
-220 -221 0
-220 -241 0
-220 -222 0
-220 -247 0
-235 -221 0
-235 -241 0
-235 -222 0
-235 -247 0
-221 -241 0
-221 -222 0
-221 -247 0
-241 -222 0
-241 -247 0
-222 -247 0
-254 -259 0
-254 -255 0
-254 -265 0
-254 -256 0
-254 -271 0
-254 -257 0
-254 -277 0
-254 -258 0
-254 -283 0
-259 -255 0
-259 -265 0
-259 -256 0
-259 -271 0
-259 -257 0
-259 -277 0
-259 -258 0
-259 -283 0
-255 -265 0
-255 -256 0
-255 -271 0
-255 -257 0
-255 -277 0
-255 -258 0
-255 -283 0
-265 -256 0
-265 -271 0
-265 -257 0
-265 -277 0
-265 -258 0
-265 -283 0
-256 -271 0
-256 -257 0
-256 -277 0
-256 -258 0
-256 -283 0
-271 -257 0
-271 -277 0
-271 -258 0
-271 -283 0
-257 -277 0
-257 -258 0
-257 -283 0
-277 -258 0
-277 -283 0
-258 -283 0
-290 -295 0
-290 -291 0
-290 -301 0
-290 -292 0
-290 -307 0
-290 -293 0
-290 -313 0
-290 -294 0
-290 -319 0
-295 -291 0
-295 -301 0
-295 -292 0
-295 -307 0
-295 -293 0
-295 -313 0
-295 -294 0
-295 -319 0
-291 -301 0
-291 -292 0
-291 -307 0
-291 -293 0
-291 -313 0
-291 -294 0
-291 -319 0
-301 -292 0
-301 -307 0
-301 -293 0
-301 -313 0
-301 -294 0
-301 -319 0
-292 -307 0
-292 -293 0
-292 -313 0
-292 -294 0
-292 -319 0
-307 -293 0
-307 -313 0
-307 -294 0
-307 -319 0
-293 -313 0
-293 -294 0
-293 -319 0
-313 -294 0
-313 -319 0
-294 -319 0
-7 -9 0
-7 -14 0
-7 -10 0
-7 -20 0
-7 -11 0
-7 -26 0
-7 -12 0
-7 -32 0
-2 -9 0
-2 -14 0
-2 -10 0
-2 -20 0
-2 -11 0
-2 -26 0
-2 -12 0
-2 -32 0
-9 -14 0
-9 -10 0
-9 -20 0
-9 -11 0
-9 -26 0
-9 -12 0
-9 -32 0
-14 -10 0
-14 -20 0
-14 -11 0
-14 -26 0
-14 -12 0
-14 -32 0
-10 -20 0
-10 -11 0
-10 -26 0
-10 -12 0
-10 -32 0
-20 -11 0
-20 -26 0
-20 -12 0
-20 -32 0
-11 -26 0
-11 -12 0
-11 -32 0
-26 -12 0
-26 -32 0
-12 -32 0
-43 -45 0
-43 -50 0
-43 -46 0
-43 -56 0
-43 -47 0
-43 -62 0
-43 -48 0
-43 -68 0
-38 -45 0
-38 -50 0
-38 -46 0
-38 -56 0
-38 -47 0
-38 -62 0
-38 -48 0
-38 -68 0
-45 -50 0
-45 -46 0
-45 -56 0
-45 -47 0
-45 -62 0
-45 -48 0
-45 -68 0
-50 -46 0
-50 -56 0
-50 -47 0
-50 -62 0
-50 -48 0
-50 -68 0
-46 -56 0
-46 -47 0
-46 -62 0
-46 -48 0
-46 -68 0
-56 -47 0
-56 -62 0
-56 -48 0
-56 -68 0
-47 -62 0
-47 -48 0
-47 -68 0
-62 -48 0
-62 -68 0
-48 -68 0
-79 -81 0
-79 -86 0
-79 -82 0
-79 -92 0
-79 -83 0
-79 -98 0
-79 -84 0
-79 -104 0
-74 -81 0
-74 -86 0
-74 -82 0
-74 -92 0
-74 -83 0
-74 -98 0
-74 -84 0
-74 -104 0
-81 -86 0
-81 -82 0
-81 -92 0
-81 -83 0
-81 -98 0
-81 -84 0
-81 -104 0
-86 -82 0
-86 -92 0
-86 -83 0
-86 -98 0
-86 -84 0
-86 -104 0
-82 -92 0
-82 -83 0
-82 -98 0
-82 -84 0
-82 -104 0
-92 -83 0
-92 -98 0
-92 -84 0
-92 -104 0
-83 -98 0
-83 -84 0
-83 -104 0
-98 -84 0
-98 -104 0
-84 -104 0
-115 -117 0
-115 -122 0
-115 -118 0
-115 -128 0
-115 -119 0
-115 -134 0
-115 -120 0
-115 -140 0
-110 -117 0
-110 -122 0
-110 -118 0
-110 -128 0
-110 -119 0
-110 -134 0
-110 -120 0
-110 -140 0
-117 -122 0
-117 -118 0
-117 -128 0
-117 -119 0
-117 -134 0
-117 -120 0
-117 -140 0
-122 -118 0
-122 -128 0
-122 -119 0
-122 -134 0
-122 -120 0
-122 -140 0
-118 -128 0
-118 -119 0
-118 -134 0
-118 -120 0
-118 -140 0
-128 -119 0
-128 -134 0
-128 -120 0
-128 -140 0
-119 -134 0
-119 -120 0
-119 -140 0
-134 -120 0
-134 -140 0
-120 -140 0
-151 -153 0
-151 -158 0
-151 -154 0
-151 -164 0
-151 -155 0
-151 -170 0
-151 -156 0
-151 -176 0
-146 -153 0
-146 -158 0
-146 -154 0
-146 -164 0
-146 -155 0
-146 -170 0
-146 -156 0
-146 -176 0
-153 -158 0
-153 -154 0
-153 -164 0
-153 -155 0
-153 -170 0
-153 -156 0
-153 -176 0
-158 -154 0
-158 -164 0
-158 -155 0
-158 -170 0
-158 -156 0
-158 -176 0
-154 -164 0
-154 -155 0
-154 -170 0
-154 -156 0
-154 -176 0
-164 -155 0
-164 -170 0
-164 -156 0
-164 -176 0
-155 -170 0
-155 -156 0
-155 -176 0
-170 -156 0
-170 -176 0
-156 -176 0
-187 -189 0
-187 -194 0
-187 -190 0
-187 -200 0
-187 -191 0
-187 -206 0
-187 -192 0
-187 -212 0
-182 -189 0
-182 -194 0
-182 -190 0
-182 -200 0
-182 -191 0
-182 -206 0
-182 -192 0
-182 -212 0
-189 -194 0
-189 -190 0
-189 -200 0
-189 -191 0
-189 -206 0
-189 -192 0
-189 -212 0
-194 -190 0
-194 -200 0
-194 -191 0
-194 -206 0
-194 -192 0
-194 -212 0
-190 -200 0
-190 -191 0
-190 -206 0
-190 -192 0
-190 -212 0
-200 -191 0
-200 -206 0
-200 -192 0
-200 -212 0
-191 -206 0
-191 -192 0
-191 -212 0
-206 -192 0
-206 -212 0
-192 -212 0
-223 -225 0
-223 -230 0
-223 -226 0
-223 -236 0
-223 -227 0
-223 -242 0
-223 -228 0
-223 -248 0
-218 -225 0
-218 -230 0
-218 -226 0
-218 -236 0
-218 -227 0
-218 -242 0
-218 -228 0
-218 -248 0
-225 -230 0
-225 -226 0
-225 -236 0
-225 -227 0
-225 -242 0
-225 -228 0
-225 -248 0
-230 -226 0
-230 -236 0
-230 -227 0
-230 -242 0
-230 -228 0
-230 -248 0
-226 -236 0
-226 -227 0
-226 -242 0
-226 -228 0
-226 -248 0
-236 -227 0
-236 -242 0
-236 -228 0
-236 -248 0
-227 -242 0
-227 -228 0
-227 -248 0
-242 -228 0
-242 -248 0
-228 -248 0
-259 -261 0
-259 -266 0
-259 -262 0
-259 -272 0
-259 -263 0
-259 -278 0
-259 -264 0
-259 -284 0
-254 -261 0
-254 -266 0
-254 -262 0
-254 -272 0
-254 -263 0
-254 -278 0
-254 -264 0
-254 -284 0
-261 -266 0
-261 -262 0
-261 -272 0
-261 -263 0
-261 -278 0
-261 -264 0
-261 -284 0
-266 -262 0
-266 -272 0
-266 -263 0
-266 -278 0
-266 -264 0
-266 -284 0
-262 -272 0
-262 -263 0
-262 -278 0
-262 -264 0
-262 -284 0
-272 -263 0
-272 -278 0
-272 -264 0
-272 -284 0
-263 -278 0
-263 -264 0
-263 -284 0
-278 -264 0
-278 -284 0
-264 -284 0
-295 -297 0
-295 -302 0
-295 -298 0
-295 -308 0
-295 -299 0
-295 -314 0
-295 -300 0
-295 -320 0
-290 -297 0
-290 -302 0
-290 -298 0
-290 -308 0
-290 -299 0
-290 -314 0
-290 -300 0
-290 -320 0
-297 -302 0
-297 -298 0
-297 -308 0
-297 -299 0
-297 -314 0
-297 -300 0
-297 -320 0
-302 -298 0
-302 -308 0
-302 -299 0
-302 -314 0
-302 -300 0
-302 -320 0
-298 -308 0
-298 -299 0
-298 -314 0
-298 -300 0
-298 -320 0
-308 -299 0
-308 -314 0
-308 -300 0
-308 -320 0
-299 -314 0
-299 -300 0
-299 -320 0
-314 -300 0
-314 -320 0
-300 -320 0
-13 -14 0
-13 -9 0
-13 -16 0
-13 -21 0
-13 -17 0
-13 -27 0
-13 -18 0
-13 -33 0
-3 -14 0
-3 -9 0
-3 -16 0
-3 -21 0
-3 -17 0
-3 -27 0
-3 -18 0
-3 -33 0
-14 -16 0
-14 -21 0
-14 -17 0
-14 -27 0
-14 -18 0
-14 -33 0
-9 -16 0
-9 -21 0
-9 -17 0
-9 -27 0
-9 -18 0
-9 -33 0
-16 -21 0
-16 -17 0
-16 -27 0
-16 -18 0
-16 -33 0
-21 -17 0
-21 -27 0
-21 -18 0
-21 -33 0
-17 -27 0
-17 -18 0
-17 -33 0
-27 -18 0
-27 -33 0
-18 -33 0
-49 -50 0
-49 -45 0
-49 -52 0
-49 -57 0
-49 -53 0
-49 -63 0
-49 -54 0
-49 -69 0
-39 -50 0
-39 -45 0
-39 -52 0
-39 -57 0
-39 -53 0
-39 -63 0
-39 -54 0
-39 -69 0
-50 -52 0
-50 -57 0
-50 -53 0
-50 -63 0
-50 -54 0
-50 -69 0
-45 -52 0
-45 -57 0
-45 -53 0
-45 -63 0
-45 -54 0
-45 -69 0
-52 -57 0
-52 -53 0
-52 -63 0
-52 -54 0
-52 -69 0
-57 -53 0
-57 -63 0
-57 -54 0
-57 -69 0
-53 -63 0
-53 -54 0
-53 -69 0
-63 -54 0
-63 -69 0
-54 -69 0
-85 -86 0
-85 -81 0
-85 -88 0
-85 -93 0
-85 -89 0
-85 -99 0
-85 -90 0
-85 -105 0
-75 -86 0
-75 -81 0
-75 -88 0
-75 -93 0
-75 -89 0
-75 -99 0
-75 -90 0
-75 -105 0
-86 -88 0
-86 -93 0
-86 -89 0
-86 -99 0
-86 -90 0
-86 -105 0
-81 -88 0
-81 -93 0
-81 -89 0
-81 -99 0
-81 -90 0
-81 -105 0
-88 -93 0
-88 -89 0
-88 -99 0
-88 -90 0
-88 -105 0
-93 -89 0
-93 -99 0
-93 -90 0
-93 -105 0
-89 -99 0
-89 -90 0
-89 -105 0
-99 -90 0
-99 -105 0
-90 -105 0
-121 -122 0
-121 -117 0
-121 -124 0
-121 -129 0
-121 -125 0
-121 -135 0
-121 -126 0
-121 -141 0
-111 -122 0
-111 -117 0
-111 -124 0
-111 -129 0
-111 -125 0
-111 -135 0
-111 -126 0
-111 -141 0
-122 -124 0
-122 -129 0
-122 -125 0
-122 -135 0
-122 -126 0
-122 -141 0
-117 -124 0
-117 -129 0
-117 -125 0
-117 -135 0
-117 -126 0
-117 -141 0
-124 -129 0
-124 -125 0
-124 -135 0
-124 -126 0
-124 -141 0
-129 -125 0
-129 -135 0
-129 -126 0
-129 -141 0
-125 -135 0
-125 -126 0
-125 -141 0
-135 -126 0
-135 -141 0
-126 -141 0
-157 -158 0
-157 -153 0
-157 -160 0
-157 -165 0
-157 -161 0
-157 -171 0
-157 -162 0
-157 -177 0
-147 -158 0
-147 -153 0
-147 -160 0
-147 -165 0
-147 -161 0
-147 -171 0
-147 -162 0
-147 -177 0
-158 -160 0
-158 -165 0
-158 -161 0
-158 -171 0
-158 -162 0
-158 -177 0
-153 -160 0
-153 -165 0
-153 -161 0
-153 -171 0
-153 -162 0
-153 -177 0
-160 -165 0
-160 -161 0
-160 -171 0
-160 -162 0
-160 -177 0
-165 -161 0
-165 -171 0
-165 -162 0
-165 -177 0
-161 -171 0
-161 -162 0
-161 -177 0
-171 -162 0
-171 -177 0
-162 -177 0
-193 -194 0
-193 -189 0
-193 -196 0
-193 -201 0
-193 -197 0
-193 -207 0
-193 -198 0
-193 -213 0
-183 -194 0
-183 -189 0
-183 -196 0
-183 -201 0
-183 -197 0
-183 -207 0
-183 -198 0
-183 -213 0
-194 -196 0
-194 -201 0
-194 -197 0
-194 -207 0
-194 -198 0
-194 -213 0
-189 -196 0
-189 -201 0
-189 -197 0
-189 -207 0
-189 -198 0
-189 -213 0
-196 -201 0
-196 -197 0
-196 -207 0
-196 -198 0
-196 -213 0
-201 -197 0
-201 -207 0
-201 -198 0
-201 -213 0
-197 -207 0
-197 -198 0
-197 -213 0
-207 -198 0
-207 -213 0
-198 -213 0
-229 -230 0
-229 -225 0
-229 -232 0
-229 -237 0
-229 -233 0
-229 -243 0
-229 -234 0
-229 -249 0
-219 -230 0
-219 -225 0
-219 -232 0
-219 -237 0
-219 -233 0
-219 -243 0
-219 -234 0
-219 -249 0
-230 -232 0
-230 -237 0
-230 -233 0
-230 -243 0
-230 -234 0
-230 -249 0
-225 -232 0
-225 -237 0
-225 -233 0
-225 -243 0
-225 -234 0
-225 -249 0
-232 -237 0
-232 -233 0
-232 -243 0
-232 -234 0
-232 -249 0
-237 -233 0
-237 -243 0
-237 -234 0
-237 -249 0
-233 -243 0
-233 -234 0
-233 -249 0
-243 -234 0
-243 -249 0
-234 -249 0
-265 -266 0
-265 -261 0
-265 -268 0
-265 -273 0
-265 -269 0
-265 -279 0
-265 -270 0
-265 -285 0
-255 -266 0
-255 -261 0
-255 -268 0
-255 -273 0
-255 -269 0
-255 -279 0
-255 -270 0
-255 -285 0
-266 -268 0
-266 -273 0
-266 -269 0
-266 -279 0
-266 -270 0
-266 -285 0
-261 -268 0
-261 -273 0
-261 -269 0
-261 -279 0
-261 -270 0
-261 -285 0
-268 -273 0
-268 -269 0
-268 -279 0
-268 -270 0
-268 -285 0
-273 -269 0
-273 -279 0
-273 -270 0
-273 -285 0
-269 -279 0
-269 -270 0
-269 -285 0
-279 -270 0
-279 -285 0
-270 -285 0
-301 -302 0
-301 -297 0
-301 -304 0
-301 -309 0
-301 -305 0
-301 -315 0
-301 -306 0
-301 -321 0
-291 -302 0
-291 -297 0
-291 -304 0
-291 -309 0
-291 -305 0
-291 -315 0
-291 -306 0
-291 -321 0
-302 -304 0
-302 -309 0
-302 -305 0
-302 -315 0
-302 -306 0
-302 -321 0
-297 -304 0
-297 -309 0
-297 -305 0
-297 -315 0
-297 -306 0
-297 -321 0
-304 -309 0
-304 -305 0
-304 -315 0
-304 -306 0
-304 -321 0
-309 -305 0
-309 -315 0
-309 -306 0
-309 -321 0
-305 -315 0
-305 -306 0
-305 -321 0
-315 -306 0
-315 -321 0
-306 -321 0
-19 -20 0
-19 -10 0
-19 -21 0
-19 -16 0
-19 -23 0
-19 -28 0
-19 -24 0
-19 -34 0
-4 -20 0
-4 -10 0
-4 -21 0
-4 -16 0
-4 -23 0
-4 -28 0
-4 -24 0
-4 -34 0
-20 -21 0
-20 -16 0
-20 -23 0
-20 -28 0
-20 -24 0
-20 -34 0
-10 -21 0
-10 -16 0
-10 -23 0
-10 -28 0
-10 -24 0
-10 -34 0
-21 -23 0
-21 -28 0
-21 -24 0
-21 -34 0
-16 -23 0
-16 -28 0
-16 -24 0
-16 -34 0
-23 -28 0
-23 -24 0
-23 -34 0
-28 -24 0
-28 -34 0
-24 -34 0
-55 -56 0
-55 -46 0
-55 -57 0
-55 -52 0
-55 -59 0
-55 -64 0
-55 -60 0
-55 -70 0
-40 -56 0
-40 -46 0
-40 -57 0
-40 -52 0
-40 -59 0
-40 -64 0
-40 -60 0
-40 -70 0
-56 -57 0
-56 -52 0
-56 -59 0
-56 -64 0
-56 -60 0
-56 -70 0
-46 -57 0
-46 -52 0
-46 -59 0
-46 -64 0
-46 -60 0
-46 -70 0
-57 -59 0
-57 -64 0
-57 -60 0
-57 -70 0
-52 -59 0
-52 -64 0
-52 -60 0
-52 -70 0
-59 -64 0
-59 -60 0
-59 -70 0
-64 -60 0
-64 -70 0
-60 -70 0
-91 -92 0
-91 -82 0
-91 -93 0
-91 -88 0
-91 -95 0
-91 -100 0
-91 -96 0
-91 -106 0
-76 -92 0
-76 -82 0
-76 -93 0
-76 -88 0
-76 -95 0
-76 -100 0
-76 -96 0
-76 -106 0
-92 -93 0
-92 -88 0
-92 -95 0
-92 -100 0
-92 -96 0
-92 -106 0
-82 -93 0
-82 -88 0
-82 -95 0
-82 -100 0
-82 -96 0
-82 -106 0
-93 -95 0
-93 -100 0
-93 -96 0
-93 -106 0
-88 -95 0
-88 -100 0
-88 -96 0
-88 -106 0
-95 -100 0
-95 -96 0
-95 -106 0
-100 -96 0
-100 -106 0
-96 -106 0
-127 -128 0
-127 -118 0
-127 -129 0
-127 -124 0
-127 -131 0
-127 -136 0
-127 -132 0
-127 -142 0
-112 -128 0
-112 -118 0
-112 -129 0
-112 -124 0
-112 -131 0
-112 -136 0
-112 -132 0
-112 -142 0
-128 -129 0
-128 -124 0
-128 -131 0
-128 -136 0
-128 -132 0
-128 -142 0
-118 -129 0
-118 -124 0
-118 -131 0
-118 -136 0
-118 -132 0
-118 -142 0
-129 -131 0
-129 -136 0
-129 -132 0
-129 -142 0
-124 -131 0
-124 -136 0
-124 -132 0
-124 -142 0
-131 -136 0
-131 -132 0
-131 -142 0
-136 -132 0
-136 -142 0
-132 -142 0
-163 -164 0
-163 -154 0
-163 -165 0
-163 -160 0
-163 -167 0
-163 -172 0
-163 -168 0
-163 -178 0
-148 -164 0
-148 -154 0
-148 -165 0
-148 -160 0
-148 -167 0
-148 -172 0
-148 -168 0
-148 -178 0
-164 -165 0
-164 -160 0
-164 -167 0
-164 -172 0
-164 -168 0
-164 -178 0
-154 -165 0
-154 -160 0
-154 -167 0
-154 -172 0
-154 -168 0
-154 -178 0
-165 -167 0
-165 -172 0
-165 -168 0
-165 -178 0
-160 -167 0
-160 -172 0
-160 -168 0
-160 -178 0
-167 -172 0
-167 -168 0
-167 -178 0
-172 -168 0
-172 -178 0
-168 -178 0
-199 -200 0
-199 -190 0
-199 -201 0
-199 -196 0
-199 -203 0
-199 -208 0
-199 -204 0
-199 -214 0
-184 -200 0
-184 -190 0
-184 -201 0
-184 -196 0
-184 -203 0
-184 -208 0
-184 -204 0
-184 -214 0
-200 -201 0
-200 -196 0
-200 -203 0
-200 -208 0
-200 -204 0
-200 -214 0
-190 -201 0
-190 -196 0
-190 -203 0
-190 -208 0
-190 -204 0
-190 -214 0
-201 -203 0
-201 -208 0
-201 -204 0
-201 -214 0
-196 -203 0
-196 -208 0
-196 -204 0
-196 -214 0
-203 -208 0
-203 -204 0
-203 -214 0
-208 -204 0
-208 -214 0
-204 -214 0
-235 -236 0
-235 -226 0
-235 -237 0
-235 -232 0
-235 -239 0
-235 -244 0
-235 -240 0
-235 -250 0
-220 -236 0
-220 -226 0
-220 -237 0
-220 -232 0
-220 -239 0
-220 -244 0
-220 -240 0
-220 -250 0
-236 -237 0
-236 -232 0
-236 -239 0
-236 -244 0
-236 -240 0
-236 -250 0
-226 -237 0
-226 -232 0
-226 -239 0
-226 -244 0
-226 -240 0
-226 -250 0
-237 -239 0
-237 -244 0
-237 -240 0
-237 -250 0
-232 -239 0
-232 -244 0
-232 -240 0
-232 -250 0
-239 -244 0
-239 -240 0
-239 -250 0
-244 -240 0
-244 -250 0
-240 -250 0
-271 -272 0
-271 -262 0
-271 -273 0
-271 -268 0
-271 -275 0
-271 -280 0
-271 -276 0
-271 -286 0
-256 -272 0
-256 -262 0
-256 -273 0
-256 -268 0
-256 -275 0
-256 -280 0
-256 -276 0
-256 -286 0
-272 -273 0
-272 -268 0
-272 -275 0
-272 -280 0
-272 -276 0
-272 -286 0
-262 -273 0
-262 -268 0
-262 -275 0
-262 -280 0
-262 -276 0
-262 -286 0
-273 -275 0
-273 -280 0
-273 -276 0
-273 -286 0
-268 -275 0
-268 -280 0
-268 -276 0
-268 -286 0
-275 -280 0
-275 -276 0
-275 -286 0
-280 -276 0
-280 -286 0
-276 -286 0
-307 -308 0
-307 -298 0
-307 -309 0
-307 -304 0
-307 -311 0
-307 -316 0
-307 -312 0
-307 -322 0
-292 -308 0
-292 -298 0
-292 -309 0
-292 -304 0
-292 -311 0
-292 -316 0
-292 -312 0
-292 -322 0
-308 -309 0
-308 -304 0
-308 -311 0
-308 -316 0
-308 -312 0
-308 -322 0
-298 -309 0
-298 -304 0
-298 -311 0
-298 -316 0
-298 -312 0
-298 -322 0
-309 -311 0
-309 -316 0
-309 -312 0
-309 -322 0
-304 -311 0
-304 -316 0
-304 -312 0
-304 -322 0
-311 -316 0
-311 -312 0
-311 -322 0
-316 -312 0
-316 -322 0
-312 -322 0
-25 -26 0
-25 -11 0
-25 -27 0
-25 -17 0
-25 -28 0
-25 -23 0
-25 -30 0
-25 -35 0
-5 -26 0
-5 -11 0
-5 -27 0
-5 -17 0
-5 -28 0
-5 -23 0
-5 -30 0
-5 -35 0
-26 -27 0
-26 -17 0
-26 -28 0
-26 -23 0
-26 -30 0
-26 -35 0
-11 -27 0
-11 -17 0
-11 -28 0
-11 -23 0
-11 -30 0
-11 -35 0
-27 -28 0
-27 -23 0
-27 -30 0
-27 -35 0
-17 -28 0
-17 -23 0
-17 -30 0
-17 -35 0
-28 -30 0
-28 -35 0
-23 -30 0
-23 -35 0
-30 -35 0
-61 -62 0
-61 -47 0
-61 -63 0
-61 -53 0
-61 -64 0
-61 -59 0
-61 -66 0
-61 -71 0
-41 -62 0
-41 -47 0
-41 -63 0
-41 -53 0
-41 -64 0
-41 -59 0
-41 -66 0
-41 -71 0
-62 -63 0
-62 -53 0
-62 -64 0
-62 -59 0
-62 -66 0
-62 -71 0
-47 -63 0
-47 -53 0
-47 -64 0
-47 -59 0
-47 -66 0
-47 -71 0
-63 -64 0
-63 -59 0
-63 -66 0
-63 -71 0
-53 -64 0
-53 -59 0
-53 -66 0
-53 -71 0
-64 -66 0
-64 -71 0
-59 -66 0
-59 -71 0
-66 -71 0
-97 -98 0
-97 -83 0
-97 -99 0
-97 -89 0
-97 -100 0
-97 -95 0
-97 -102 0
-97 -107 0
-77 -98 0
-77 -83 0
-77 -99 0
-77 -89 0
-77 -100 0
-77 -95 0
-77 -102 0
-77 -107 0
-98 -99 0
-98 -89 0
-98 -100 0
-98 -95 0
-98 -102 0
-98 -107 0
-83 -99 0
-83 -89 0
-83 -100 0
-83 -95 0
-83 -102 0
-83 -107 0
-99 -100 0
-99 -95 0
-99 -102 0
-99 -107 0
-89 -100 0
-89 -95 0
-89 -102 0
-89 -107 0
-100 -102 0
-100 -107 0
-95 -102 0
-95 -107 0
-102 -107 0
-133 -134 0
-133 -119 0
-133 -135 0
-133 -125 0
-133 -136 0
-133 -131 0
-133 -138 0
-133 -143 0
-113 -134 0
-113 -119 0
-113 -135 0
-113 -125 0
-113 -136 0
-113 -131 0
-113 -138 0
-113 -143 0
-134 -135 0
-134 -125 0
-134 -136 0
-134 -131 0
-134 -138 0
-134 -143 0
-119 -135 0
-119 -125 0
-119 -136 0
-119 -131 0
-119 -138 0
-119 -143 0
-135 -136 0
-135 -131 0
-135 -138 0
-135 -143 0
-125 -136 0
-125 -131 0
-125 -138 0
-125 -143 0
-136 -138 0
-136 -143 0
-131 -138 0
-131 -143 0
-138 -143 0
-169 -170 0
-169 -155 0
-169 -171 0
-169 -161 0
-169 -172 0
-169 -167 0
-169 -174 0
-169 -179 0
-149 -170 0
-149 -155 0
-149 -171 0
-149 -161 0
-149 -172 0
-149 -167 0
-149 -174 0
-149 -179 0
-170 -171 0
-170 -161 0
-170 -172 0
-170 -167 0
-170 -174 0
-170 -179 0
-155 -171 0
-155 -161 0
-155 -172 0
-155 -167 0
-155 -174 0
-155 -179 0
-171 -172 0
-171 -167 0
-171 -174 0
-171 -179 0
-161 -172 0
-161 -167 0
-161 -174 0
-161 -179 0
-172 -174 0
-172 -179 0
-167 -174 0
-167 -179 0
-174 -179 0
-205 -206 0
-205 -191 0
-205 -207 0
-205 -197 0
-205 -208 0
-205 -203 0
-205 -210 0
-205 -215 0
-185 -206 0
-185 -191 0
-185 -207 0
-185 -197 0
-185 -208 0
-185 -203 0
-185 -210 0
-185 -215 0
-206 -207 0
-206 -197 0
-206 -208 0
-206 -203 0
-206 -210 0
-206 -215 0
-191 -207 0
-191 -197 0
-191 -208 0
-191 -203 0
-191 -210 0
-191 -215 0
-207 -208 0
-207 -203 0
-207 -210 0
-207 -215 0
-197 -208 0
-197 -203 0
-197 -210 0
-197 -215 0
-208 -210 0
-208 -215 0
-203 -210 0
-203 -215 0
-210 -215 0
-241 -242 0
-241 -227 0
-241 -243 0
-241 -233 0
-241 -244 0
-241 -239 0
-241 -246 0
-241 -251 0
-221 -242 0
-221 -227 0
-221 -243 0
-221 -233 0
-221 -244 0
-221 -239 0
-221 -246 0
-221 -251 0
-242 -243 0
-242 -233 0
-242 -244 0
-242 -239 0
-242 -246 0
-242 -251 0
-227 -243 0
-227 -233 0
-227 -244 0
-227 -239 0
-227 -246 0
-227 -251 0
-243 -244 0
-243 -239 0
-243 -246 0
-243 -251 0
-233 -244 0
-233 -239 0
-233 -246 0
-233 -251 0
-244 -246 0
-244 -251 0
-239 -246 0
-239 -251 0
-246 -251 0
-277 -278 0
-277 -263 0
-277 -279 0
-277 -269 0
-277 -280 0
-277 -275 0
-277 -282 0
-277 -287 0
-257 -278 0
-257 -263 0
-257 -279 0
-257 -269 0
-257 -280 0
-257 -275 0
-257 -282 0
-257 -287 0
-278 -279 0
-278 -269 0
-278 -280 0
-278 -275 0
-278 -282 0
-278 -287 0
-263 -279 0
-263 -269 0
-263 -280 0
-263 -275 0
-263 -282 0
-263 -287 0
-279 -280 0
-279 -275 0
-279 -282 0
-279 -287 0
-269 -280 0
-269 -275 0
-269 -282 0
-269 -287 0
-280 -282 0
-280 -287 0
-275 -282 0
-275 -287 0
-282 -287 0
-313 -314 0
-313 -299 0
-313 -315 0
-313 -305 0
-313 -316 0
-313 -311 0
-313 -318 0
-313 -323 0
-293 -314 0
-293 -299 0
-293 -315 0
-293 -305 0
-293 -316 0
-293 -311 0
-293 -318 0
-293 -323 0
-314 -315 0
-314 -305 0
-314 -316 0
-314 -311 0
-314 -318 0
-314 -323 0
-299 -315 0
-299 -305 0
-299 -316 0
-299 -311 0
-299 -318 0
-299 -323 0
-315 -316 0
-315 -311 0
-315 -318 0
-315 -323 0
-305 -316 0
-305 -311 0
-305 -318 0
-305 -323 0
-316 -318 0
-316 -323 0
-311 -318 0
-311 -323 0
-318 -323 0
-31 -32 0
-31 -12 0
-31 -33 0
-31 -18 0
-31 -34 0
-31 -24 0
-31 -35 0
-31 -30 0
-6 -32 0
-6 -12 0
-6 -33 0
-6 -18 0
-6 -34 0
-6 -24 0
-6 -35 0
-6 -30 0
-32 -33 0
-32 -18 0
-32 -34 0
-32 -24 0
-32 -35 0
-32 -30 0
-12 -33 0
-12 -18 0
-12 -34 0
-12 -24 0
-12 -35 0
-12 -30 0
-33 -34 0
-33 -24 0
-33 -35 0
-33 -30 0
-18 -34 0
-18 -24 0
-18 -35 0
-18 -30 0
-34 -35 0
-34 -30 0
-24 -35 0
-24 -30 0
-67 -68 0
-67 -48 0
-67 -69 0
-67 -54 0
-67 -70 0
-67 -60 0
-67 -71 0
-67 -66 0
-42 -68 0
-42 -48 0
-42 -69 0
-42 -54 0
-42 -70 0
-42 -60 0
-42 -71 0
-42 -66 0
-68 -69 0
-68 -54 0
-68 -70 0
-68 -60 0
-68 -71 0
-68 -66 0
-48 -69 0
-48 -54 0
-48 -70 0
-48 -60 0
-48 -71 0
-48 -66 0
-69 -70 0
-69 -60 0
-69 -71 0
-69 -66 0
-54 -70 0
-54 -60 0
-54 -71 0
-54 -66 0
-70 -71 0
-70 -66 0
-60 -71 0
-60 -66 0
-103 -104 0
-103 -84 0
-103 -105 0
-103 -90 0
-103 -106 0
-103 -96 0
-103 -107 0
-103 -102 0
-78 -104 0
-78 -84 0
-78 -105 0
-78 -90 0
-78 -106 0
-78 -96 0
-78 -107 0
-78 -102 0
-104 -105 0
-104 -90 0
-104 -106 0
-104 -96 0
-104 -107 0
-104 -102 0
-84 -105 0
-84 -90 0
-84 -106 0
-84 -96 0
-84 -107 0
-84 -102 0
-105 -106 0
-105 -96 0
-105 -107 0
-105 -102 0
-90 -106 0
-90 -96 0
-90 -107 0
-90 -102 0
-106 -107 0
-106 -102 0
-96 -107 0
-96 -102 0
-139 -140 0
-139 -120 0
-139 -141 0
-139 -126 0
-139 -142 0
-139 -132 0
-139 -143 0
-139 -138 0
-114 -140 0
-114 -120 0
-114 -141 0
-114 -126 0
-114 -142 0
-114 -132 0
-114 -143 0
-114 -138 0
-140 -141 0
-140 -126 0
-140 -142 0
-140 -132 0
-140 -143 0
-140 -138 0
-120 -141 0
-120 -126 0
-120 -142 0
-120 -132 0
-120 -143 0
-120 -138 0
-141 -142 0
-141 -132 0
-141 -143 0
-141 -138 0
-126 -142 0
-126 -132 0
-126 -143 0
-126 -138 0
-142 -143 0
-142 -138 0
-132 -143 0
-132 -138 0
-175 -176 0
-175 -156 0
-175 -177 0
-175 -162 0
-175 -178 0
-175 -168 0
-175 -179 0
-175 -174 0
-150 -176 0
-150 -156 0
-150 -177 0
-150 -162 0
-150 -178 0
-150 -168 0
-150 -179 0
-150 -174 0
-176 -177 0
-176 -162 0
-176 -178 0
-176 -168 0
-176 -179 0
-176 -174 0
-156 -177 0
-156 -162 0
-156 -178 0
-156 -168 0
-156 -179 0
-156 -174 0
-177 -178 0
-177 -168 0
-177 -179 0
-177 -174 0
-162 -178 0
-162 -168 0
-162 -179 0
-162 -174 0
-178 -179 0
-178 -174 0
-168 -179 0
-168 -174 0
-211 -212 0
-211 -192 0
-211 -213 0
-211 -198 0
-211 -214 0
-211 -204 0
-211 -215 0
-211 -210 0
-186 -212 0
-186 -192 0
-186 -213 0
-186 -198 0
-186 -214 0
-186 -204 0
-186 -215 0
-186 -210 0
-212 -213 0
-212 -198 0
-212 -214 0
-212 -204 0
-212 -215 0
-212 -210 0
-192 -213 0
-192 -198 0
-192 -214 0
-192 -204 0
-192 -215 0
-192 -210 0
-213 -214 0
-213 -204 0
-213 -215 0
-213 -210 0
-198 -214 0
-198 -204 0
-198 -215 0
-198 -210 0
-214 -215 0
-214 -210 0
-204 -215 0
-204 -210 0
-247 -248 0
-247 -228 0
-247 -249 0
-247 -234 0
-247 -250 0
-247 -240 0
-247 -251 0
-247 -246 0
-222 -248 0
-222 -228 0
-222 -249 0
-222 -234 0
-222 -250 0
-222 -240 0
-222 -251 0
-222 -246 0
-248 -249 0
-248 -234 0
-248 -250 0
-248 -240 0
-248 -251 0
-248 -246 0
-228 -249 0
-228 -234 0
-228 -250 0
-228 -240 0
-228 -251 0
-228 -246 0
-249 -250 0
-249 -240 0
-249 -251 0
-249 -246 0
-234 -250 0
-234 -240 0
-234 -251 0
-234 -246 0
-250 -251 0
-250 -246 0
-240 -251 0
-240 -246 0
-283 -284 0
-283 -264 0
-283 -285 0
-283 -270 0
-283 -286 0
-283 -276 0
-283 -287 0
-283 -282 0
-258 -284 0
-258 -264 0
-258 -285 0
-258 -270 0
-258 -286 0
-258 -276 0
-258 -287 0
-258 -282 0
-284 -285 0
-284 -270 0
-284 -286 0
-284 -276 0
-284 -287 0
-284 -282 0
-264 -285 0
-264 -270 0
-264 -286 0
-264 -276 0
-264 -287 0
-264 -282 0
-285 -286 0
-285 -276 0
-285 -287 0
-285 -282 0
-270 -286 0
-270 -276 0
-270 -287 0
-270 -282 0
-286 -287 0
-286 -282 0
-276 -287 0
-276 -282 0
-319 -320 0
-319 -300 0
-319 -321 0
-319 -306 0
-319 -322 0
-319 -312 0
-319 -323 0
-319 -318 0
-294 -320 0
-294 -300 0
-294 -321 0
-294 -306 0
-294 -322 0
-294 -312 0
-294 -323 0
-294 -318 0
-320 -321 0
-320 -306 0
-320 -322 0
-320 -312 0
-320 -323 0
-320 -318 0
-300 -321 0
-300 -306 0
-300 -322 0
-300 -312 0
-300 -323 0
-300 -318 0
-321 -322 0
-321 -312 0
-321 -323 0
-321 -318 0
-306 -322 0
-306 -312 0
-306 -323 0
-306 -318 0
-322 -323 0
-322 -318 0
-312 -323 0
-312 -318 0
2 38 74 110 146 182 218 254 290 0
-2 -38 0
-2 -74 0
-2 -110 0
-2 -146 0
-2 -182 0
-2 -218 0
-2 -254 0
-2 -290 0
-38 -74 0
-38 -110 0
-38 -146 0
-38 -182 0
-38 -218 0
-38 -254 0
-38 -290 0
-74 -110 0
-74 -146 0
-74 -182 0
-74 -218 0
-74 -254 0
-74 -290 0
-110 -146 0
-110 -182 0
-110 -218 0
-110 -254 0
-110 -290 0
-146 -182 0
-146 -218 0
-146 -254 0
-146 -290 0
-182 -218 0
-182 -254 0
-182 -290 0
-218 -254 0
-218 -290 0
-254 -290 0
7 43 79 115 151 187 223 259 295 0
-7 -43 0
-7 -79 0
-7 -115 0
-7 -151 0
-7 -187 0
-7 -223 0
-7 -259 0
-7 -295 0
-43 -79 0
-43 -115 0
-43 -151 0
-43 -187 0
-43 -223 0
-43 -259 0
-43 -295 0
-79 -115 0
-79 -151 0
-79 -187 0
-79 -223 0
-79 -259 0
-79 -295 0
-115 -151 0
-115 -187 0
-115 -223 0
-115 -259 0
-115 -295 0
-151 -187 0
-151 -223 0
-151 -259 0
-151 -295 0
-187 -223 0
-187 -259 0
-187 -295 0
-223 -259 0
-223 -295 0
-259 -295 0
3 39 75 111 147 183 219 255 291 0
-3 -39 0
-3 -75 0
-3 -111 0
-3 -147 0
-3 -183 0
-3 -219 0
-3 -255 0
-3 -291 0
-39 -75 0
-39 -111 0
-39 -147 0
-39 -183 0
-39 -219 0
-39 -255 0
-39 -291 0
-75 -111 0
-75 -147 0
-75 -183 0
-75 -219 0
-75 -255 0
-75 -291 0
-111 -147 0
-111 -183 0
-111 -219 0
-111 -255 0
-111 -291 0
-147 -183 0
-147 -219 0
-147 -255 0
-147 -291 0
-183 -219 0
-183 -255 0
-183 -291 0
-219 -255 0
-219 -291 0
-255 -291 0
13 49 85 121 157 193 229 265 301 0
-13 -49 0
-13 -85 0
-13 -121 0
-13 -157 0
-13 -193 0
-13 -229 0
-13 -265 0
-13 -301 0
-49 -85 0
-49 -121 0
-49 -157 0
-49 -193 0
-49 -229 0
-49 -265 0
-49 -301 0
-85 -121 0
-85 -157 0
-85 -193 0
-85 -229 0
-85 -265 0
-85 -301 0
-121 -157 0
-121 -193 0
-121 -229 0
-121 -265 0
-121 -301 0
-157 -193 0
-157 -229 0
-157 -265 0
-157 -301 0
-193 -229 0
-193 -265 0
-193 -301 0
-229 -265 0
-229 -301 0
-265 -301 0
4 40 76 112 148 184 220 256 292 0
-4 -40 0
-4 -76 0
-4 -112 0
-4 -148 0
-4 -184 0
-4 -220 0
-4 -256 0
-4 -292 0
-40 -76 0
-40 -112 0
-40 -148 0
-40 -184 0
-40 -220 0
-40 -256 0
-40 -292 0
-76 -112 0
-76 -148 0
-76 -184 0
-76 -220 0
-76 -256 0
-76 -292 0
-112 -148 0
-112 -184 0
-112 -220 0
-112 -256 0
-112 -292 0
-148 -184 0
-148 -220 0
-148 -256 0
-148 -292 0
-184 -220 0
-184 -256 0
-184 -292 0
-220 -256 0
-220 -292 0
-256 -292 0
19 55 91 127 163 199 235 271 307 0
-19 -55 0
-19 -91 0
-19 -127 0
-19 -163 0
-19 -199 0
-19 -235 0
-19 -271 0
-19 -307 0
-55 -91 0
-55 -127 0
-55 -163 0
-55 -199 0
-55 -235 0
-55 -271 0
-55 -307 0
-91 -127 0
-91 -163 0
-91 -199 0
-91 -235 0
-91 -271 0
-91 -307 0
-127 -163 0
-127 -199 0
-127 -235 0
-127 -271 0
-127 -307 0
-163 -199 0
-163 -235 0
-163 -271 0
-163 -307 0
-199 -235 0
-199 -271 0
-199 -307 0
-235 -271 0
-235 -307 0
-271 -307 0
5 41 77 113 149 185 221 257 293 0
-5 -41 0
-5 -77 0
-5 -113 0
-5 -149 0
-5 -185 0
-5 -221 0
-5 -257 0
-5 -293 0
-41 -77 0
-41 -113 0
-41 -149 0
-41 -185 0
-41 -221 0
-41 -257 0
-41 -293 0
-77 -113 0
-77 -149 0
-77 -185 0
-77 -221 0
-77 -257 0
-77 -293 0
-113 -149 0
-113 -185 0
-113 -221 0
-113 -257 0
-113 -293 0
-149 -185 0
-149 -221 0
-149 -257 0
-149 -293 0
-185 -221 0
-185 -257 0
-185 -293 0
-221 -257 0
-221 -293 0
-257 -293 0
25 61 97 133 169 205 241 277 313 0
-25 -61 0
-25 -97 0
-25 -133 0
-25 -169 0
-25 -205 0
-25 -241 0
-25 -277 0
-25 -313 0
-61 -97 0
-61 -133 0
-61 -169 0
-61 -205 0
-61 -241 0
-61 -277 0
-61 -313 0
-97 -133 0
-97 -169 0
-97 -205 0
-97 -241 0
-97 -277 0
-97 -313 0
-133 -169 0
-133 -205 0
-133 -241 0
-133 -277 0
-133 -313 0
-169 -205 0
-169 -241 0
-169 -277 0
-169 -313 0
-205 -241 0
-205 -277 0
-205 -313 0
-241 -277 0
-241 -313 0
-277 -313 0
6 42 78 114 150 186 222 258 294 0
-6 -42 0
-6 -78 0
-6 -114 0
-6 -150 0
-6 -186 0
-6 -222 0
-6 -258 0
-6 -294 0
-42 -78 0
-42 -114 0
-42 -150 0
-42 -186 0
-42 -222 0
-42 -258 0
-42 -294 0
-78 -114 0
-78 -150 0
-78 -186 0
-78 -222 0
-78 -258 0
-78 -294 0
-114 -150 0
-114 -186 0
-114 -222 0
-114 -258 0
-114 -294 0
-150 -186 0
-150 -222 0
-150 -258 0
-150 -294 0
-186 -222 0
-186 -258 0
-186 -294 0
-222 -258 0
-222 -294 0
-258 -294 0
31 67 103 139 175 211 247 283 319 0
-31 -67 0
-31 -103 0
-31 -139 0
-31 -175 0
-31 -211 0
-31 -247 0
-31 -283 0
-31 -319 0
-67 -103 0
-67 -139 0
-67 -175 0
-67 -211 0
-67 -247 0
-67 -283 0
-67 -319 0
-103 -139 0
-103 -175 0
-103 -211 0
-103 -247 0
-103 -283 0
-103 -319 0
-139 -175 0
-139 -211 0
-139 -247 0
-139 -283 0
-139 -319 0
-175 -211 0
-175 -247 0
-175 -283 0
-175 -319 0
-211 -247 0
-211 -283 0
-211 -319 0
-247 -283 0
-247 -319 0
-283 -319 0
9 45 81 117 153 189 225 261 297 0
-9 -45 0
-9 -81 0
-9 -117 0
-9 -153 0
-9 -189 0
-9 -225 0
-9 -261 0
-9 -297 0
-45 -81 0
-45 -117 0
-45 -153 0
-45 -189 0
-45 -225 0
-45 -261 0
-45 -297 0
-81 -117 0
-81 -153 0
-81 -189 0
-81 -225 0
-81 -261 0
-81 -297 0
-117 -153 0
-117 -189 0
-117 -225 0
-117 -261 0
-117 -297 0
-153 -189 0
-153 -225 0
-153 -261 0
-153 -297 0
-189 -225 0
-189 -261 0
-189 -297 0
-225 -261 0
-225 -297 0
-261 -297 0
14 50 86 122 158 194 230 266 302 0
-14 -50 0
-14 -86 0
-14 -122 0
-14 -158 0
-14 -194 0
-14 -230 0
-14 -266 0
-14 -302 0
-50 -86 0
-50 -122 0
-50 -158 0
-50 -194 0
-50 -230 0
-50 -266 0
-50 -302 0
-86 -122 0
-86 -158 0
-86 -194 0
-86 -230 0
-86 -266 0
-86 -302 0
-122 -158 0
-122 -194 0
-122 -230 0
-122 -266 0
-122 -302 0
-158 -194 0
-158 -230 0
-158 -266 0
-158 -302 0
-194 -230 0
-194 -266 0
-194 -302 0
-230 -266 0
-230 -302 0
-266 -302 0
10 46 82 118 154 190 226 262 298 0
-10 -46 0
-10 -82 0
-10 -118 0
-10 -154 0
-10 -190 0
-10 -226 0
-10 -262 0
-10 -298 0
-46 -82 0
-46 -118 0
-46 -154 0
-46 -190 0
-46 -226 0
-46 -262 0
-46 -298 0
-82 -118 0
-82 -154 0
-82 -190 0
-82 -226 0
-82 -262 0
-82 -298 0
-118 -154 0
-118 -190 0
-118 -226 0
-118 -262 0
-118 -298 0
-154 -190 0
-154 -226 0
-154 -262 0
-154 -298 0
-190 -226 0
-190 -262 0
-190 -298 0
-226 -262 0
-226 -298 0
-262 -298 0
20 56 92 128 164 200 236 272 308 0
-20 -56 0
-20 -92 0
-20 -128 0
-20 -164 0
-20 -200 0
-20 -236 0
-20 -272 0
-20 -308 0
-56 -92 0
-56 -128 0
-56 -164 0
-56 -200 0
-56 -236 0
-56 -272 0
-56 -308 0
-92 -128 0
-92 -164 0
-92 -200 0
-92 -236 0
-92 -272 0
-92 -308 0
-128 -164 0
-128 -200 0
-128 -236 0
-128 -272 0
-128 -308 0
-164 -200 0
-164 -236 0
-164 -272 0
-164 -308 0
-200 -236 0
-200 -272 0
-200 -308 0
-236 -272 0
-236 -308 0
-272 -308 0
11 47 83 119 155 191 227 263 299 0
-11 -47 0
-11 -83 0
-11 -119 0
-11 -155 0
-11 -191 0
-11 -227 0
-11 -263 0
-11 -299 0
-47 -83 0
-47 -119 0
-47 -155 0
-47 -191 0
-47 -227 0
-47 -263 0
-47 -299 0
-83 -119 0
-83 -155 0
-83 -191 0
-83 -227 0
-83 -263 0
-83 -299 0
-119 -155 0
-119 -191 0
-119 -227 0
-119 -263 0
-119 -299 0
-155 -191 0
-155 -227 0
-155 -263 0
-155 -299 0
-191 -227 0
-191 -263 0
-191 -299 0
-227 -263 0
-227 -299 0
-263 -299 0
26 62 98 134 170 206 242 278 314 0
-26 -62 0
-26 -98 0
-26 -134 0
-26 -170 0
-26 -206 0
-26 -242 0
-26 -278 0
-26 -314 0
-62 -98 0
-62 -134 0
-62 -170 0
-62 -206 0
-62 -242 0
-62 -278 0
-62 -314 0
-98 -134 0
-98 -170 0
-98 -206 0
-98 -242 0
-98 -278 0
-98 -314 0
-134 -170 0
-134 -206 0
-134 -242 0
-134 -278 0
-134 -314 0
-170 -206 0
-170 -242 0
-170 -278 0
-170 -314 0
-206 -242 0
-206 -278 0
-206 -314 0
-242 -278 0
-242 -314 0
-278 -314 0
12 48 84 120 156 192 228 264 300 0
-12 -48 0
-12 -84 0
-12 -120 0
-12 -156 0
-12 -192 0
-12 -228 0
-12 -264 0
-12 -300 0
-48 -84 0
-48 -120 0
-48 -156 0
-48 -192 0
-48 -228 0
-48 -264 0
-48 -300 0
-84 -120 0
-84 -156 0
-84 -192 0
-84 -228 0
-84 -264 0
-84 -300 0
-120 -156 0
-120 -192 0
-120 -228 0
-120 -264 0
-120 -300 0
-156 -192 0
-156 -228 0
-156 -264 0
-156 -300 0
-192 -228 0
-192 -264 0
-192 -300 0
-228 -264 0
-228 -300 0
-264 -300 0
32 68 104 140 176 212 248 284 320 0
-32 -68 0
-32 -104 0
-32 -140 0
-32 -176 0
-32 -212 0
-32 -248 0
-32 -284 0
-32 -320 0
-68 -104 0
-68 -140 0
-68 -176 0
-68 -212 0
-68 -248 0
-68 -284 0
-68 -320 0
-104 -140 0
-104 -176 0
-104 -212 0
-104 -248 0
-104 -284 0
-104 -320 0
-140 -176 0
-140 -212 0
-140 -248 0
-140 -284 0
-140 -320 0
-176 -212 0
-176 -248 0
-176 -284 0
-176 -320 0
-212 -248 0
-212 -284 0
-212 -320 0
-248 -284 0
-248 -320 0
-284 -320 0
16 52 88 124 160 196 232 268 304 0
-16 -52 0
-16 -88 0
-16 -124 0
-16 -160 0
-16 -196 0
-16 -232 0
-16 -268 0
-16 -304 0
-52 -88 0
-52 -124 0
-52 -160 0
-52 -196 0
-52 -232 0
-52 -268 0
-52 -304 0
-88 -124 0
-88 -160 0
-88 -196 0
-88 -232 0
-88 -268 0
-88 -304 0
-124 -160 0
-124 -196 0
-124 -232 0
-124 -268 0
-124 -304 0
-160 -196 0
-160 -232 0
-160 -268 0
-160 -304 0
-196 -232 0
-196 -268 0
-196 -304 0
-232 -268 0
-232 -304 0
-268 -304 0
21 57 93 129 165 201 237 273 309 0
-21 -57 0
-21 -93 0
-21 -129 0
-21 -165 0
-21 -201 0
-21 -237 0
-21 -273 0
-21 -309 0
-57 -93 0
-57 -129 0
-57 -165 0
-57 -201 0
-57 -237 0
-57 -273 0
-57 -309 0
-93 -129 0
-93 -165 0
-93 -201 0
-93 -237 0
-93 -273 0
-93 -309 0
-129 -165 0
-129 -201 0
-129 -237 0
-129 -273 0
-129 -309 0
-165 -201 0
-165 -237 0
-165 -273 0
-165 -309 0
-201 -237 0
-201 -273 0
-201 -309 0
-237 -273 0
-237 -309 0
-273 -309 0
17 53 89 125 161 197 233 269 305 0
-17 -53 0
-17 -89 0
-17 -125 0
-17 -161 0
-17 -197 0
-17 -233 0
-17 -269 0
-17 -305 0
-53 -89 0
-53 -125 0
-53 -161 0
-53 -197 0
-53 -233 0
-53 -269 0
-53 -305 0
-89 -125 0
-89 -161 0
-89 -197 0
-89 -233 0
-89 -269 0
-89 -305 0
-125 -161 0
-125 -197 0
-125 -233 0
-125 -269 0
-125 -305 0
-161 -197 0
-161 -233 0
-161 -269 0
-161 -305 0
-197 -233 0
-197 -269 0
-197 -305 0
-233 -269 0
-233 -305 0
-269 -305 0
27 63 99 135 171 207 243 279 315 0
-27 -63 0
-27 -99 0
-27 -135 0
-27 -171 0
-27 -207 0
-27 -243 0
-27 -279 0
-27 -315 0
-63 -99 0
-63 -135 0
-63 -171 0
-63 -207 0
-63 -243 0
-63 -279 0
-63 -315 0
-99 -135 0
-99 -171 0
-99 -207 0
-99 -243 0
-99 -279 0
-99 -315 0
-135 -171 0
-135 -207 0
-135 -243 0
-135 -279 0
-135 -315 0
-171 -207 0
-171 -243 0
-171 -279 0
-171 -315 0
-207 -243 0
-207 -279 0
-207 -315 0
-243 -279 0
-243 -315 0
-279 -315 0
18 54 90 126 162 198 234 270 306 0
-18 -54 0
-18 -90 0
-18 -126 0
-18 -162 0
-18 -198 0
-18 -234 0
-18 -270 0
-18 -306 0
-54 -90 0
-54 -126 0
-54 -162 0
-54 -198 0
-54 -234 0
-54 -270 0
-54 -306 0
-90 -126 0
-90 -162 0
-90 -198 0
-90 -234 0
-90 -270 0
-90 -306 0
-126 -162 0
-126 -198 0
-126 -234 0
-126 -270 0
-126 -306 0
-162 -198 0
-162 -234 0
-162 -270 0
-162 -306 0
-198 -234 0
-198 -270 0
-198 -306 0
-234 -270 0
-234 -306 0
-270 -306 0
33 69 105 141 177 213 249 285 321 0
-33 -69 0
-33 -105 0
-33 -141 0
-33 -177 0
-33 -213 0
-33 -249 0
-33 -285 0
-33 -321 0
-69 -105 0
-69 -141 0
-69 -177 0
-69 -213 0
-69 -249 0
-69 -285 0
-69 -321 0
-105 -141 0
-105 -177 0
-105 -213 0
-105 -249 0
-105 -285 0
-105 -321 0
-141 -177 0
-141 -213 0
-141 -249 0
-141 -285 0
-141 -321 0
-177 -213 0
-177 -249 0
-177 -285 0
-177 -321 0
-213 -249 0
-213 -285 0
-213 -321 0
-249 -285 0
-249 -321 0
-285 -321 0
23 59 95 131 167 203 239 275 311 0
-23 -59 0
-23 -95 0
-23 -131 0
-23 -167 0
-23 -203 0
-23 -239 0
-23 -275 0
-23 -311 0
-59 -95 0
-59 -131 0
-59 -167 0
-59 -203 0
-59 -239 0
-59 -275 0
-59 -311 0
-95 -131 0
-95 -167 0
-95 -203 0
-95 -239 0
-95 -275 0
-95 -311 0
-131 -167 0
-131 -203 0
-131 -239 0
-131 -275 0
-131 -311 0
-167 -203 0
-167 -239 0
-167 -275 0
-167 -311 0
-203 -239 0
-203 -275 0
-203 -311 0
-239 -275 0
-239 -311 0
-275 -311 0
28 64 100 136 172 208 244 280 316 0
-28 -64 0
-28 -100 0
-28 -136 0
-28 -172 0
-28 -208 0
-28 -244 0
-28 -280 0
-28 -316 0
-64 -100 0
-64 -136 0
-64 -172 0
-64 -208 0
-64 -244 0
-64 -280 0
-64 -316 0
-100 -136 0
-100 -172 0
-100 -208 0
-100 -244 0
-100 -280 0
-100 -316 0
-136 -172 0
-136 -208 0
-136 -244 0
-136 -280 0
-136 -316 0
-172 -208 0
-172 -244 0
-172 -280 0
-172 -316 0
-208 -244 0
-208 -280 0
-208 -316 0
-244 -280 0
-244 -316 0
-280 -316 0
24 60 96 132 168 204 240 276 312 0
-24 -60 0
-24 -96 0
-24 -132 0
-24 -168 0
-24 -204 0
-24 -240 0
-24 -276 0
-24 -312 0
-60 -96 0
-60 -132 0
-60 -168 0
-60 -204 0
-60 -240 0
-60 -276 0
-60 -312 0
-96 -132 0
-96 -168 0
-96 -204 0
-96 -240 0
-96 -276 0
-96 -312 0
-132 -168 0
-132 -204 0
-132 -240 0
-132 -276 0
-132 -312 0
-168 -204 0
-168 -240 0
-168 -276 0
-168 -312 0
-204 -240 0
-204 -276 0
-204 -312 0
-240 -276 0
-240 -312 0
-276 -312 0
34 70 106 142 178 214 250 286 322 0
-34 -70 0
-34 -106 0
-34 -142 0
-34 -178 0
-34 -214 0
-34 -250 0
-34 -286 0
-34 -322 0
-70 -106 0
-70 -142 0
-70 -178 0
-70 -214 0
-70 -250 0
-70 -286 0
-70 -322 0
-106 -142 0
-106 -178 0
-106 -214 0
-106 -250 0
-106 -286 0
-106 -322 0
-142 -178 0
-142 -214 0
-142 -250 0
-142 -286 0
-142 -322 0
-178 -214 0
-178 -250 0
-178 -286 0
-178 -322 0
-214 -250 0
-214 -286 0
-214 -322 0
-250 -286 0
-250 -322 0
-286 -322 0
30 66 102 138 174 210 246 282 318 0
-30 -66 0
-30 -102 0
-30 -138 0
-30 -174 0
-30 -210 0
-30 -246 0
-30 -282 0
-30 -318 0
-66 -102 0
-66 -138 0
-66 -174 0
-66 -210 0
-66 -246 0
-66 -282 0
-66 -318 0
-102 -138 0
-102 -174 0
-102 -210 0
-102 -246 0
-102 -282 0
-102 -318 0
-138 -174 0
-138 -210 0
-138 -246 0
-138 -282 0
-138 -318 0
-174 -210 0
-174 -246 0
-174 -282 0
-174 -318 0
-210 -246 0
-210 -282 0
-210 -318 0
-246 -282 0
-246 -318 0
-282 -318 0
35 71 107 143 179 215 251 287 323 0
-35 -71 0
-35 -107 0
-35 -143 0
-35 -179 0
-35 -215 0
-35 -251 0
-35 -287 0
-35 -323 0
-71 -107 0
-71 -143 0
-71 -179 0
-71 -215 0
-71 -251 0
-71 -287 0
-71 -323 0
-107 -143 0
-107 -179 0
-107 -215 0
-107 -251 0
-107 -287 0
-107 -323 0
-143 -179 0
-143 -215 0
-143 -251 0
-143 -287 0
-143 -323 0
-179 -215 0
-179 -251 0
-179 -287 0
-179 -323 0
-215 -251 0
-215 -287 0
-215 -323 0
-251 -287 0
-251 -323 0
-287 -323 0
-1 0
-37 0
-73 0
-109 0
-145 0
-181 0
-217 0
-253 0
-289 0
-8 0
-44 0
-80 0
-116 0
-152 0
-188 0
-224 0
-260 0
-296 0
-15 0
-51 0
-87 0
-123 0
-159 0
-195 0
-231 0
-267 0
-303 0
-22 0
-58 0
-94 0
-130 0
-166 0
-202 0
-238 0
-274 0
-310 0
-29 0
-65 0
-101 0
-137 0
-173 0
-209 0
-245 0
-281 0
-317 0
-36 0
-72 0
-108 0
-144 0
-180 0
-216 0
-252 0
-288 0
-324 0